48
100
80	2
79	3
77	2
76	2
75	2
72	2
71	3
70	1
69	1
68	3
67	3
66	3
63	3
62	2
61	1
60	2
59	7
56	1
55	1
54	1
53	1
52	2
51	3
50	2
49	3
48	2
44	2
43	4
41	5
40	1
39	1
38	4
37	1
35	2
33	2
32	2
31	3
30	1
29	1
28	1
27	1
26	4
25	1
24	1
23	2
22	1
21	1
20	1
